GLPSOL--GLPK LP/MIP Solver 5.0
Parameter(s) specified in the command line:
 --lp ../modeles/3_309.lp --log 3_309.log
Reading problem data from '../modeles/3_309.lp'...
940 rows, 1860 columns, 6504 non-zeros
927 integer variables, all of which are binary
2809 lines were read
GLPK Integer Optimizer 5.0
940 rows, 1860 columns, 6504 non-zeros
927 integer variables, all of which are binary
Preprocessing...
918 constraint coefficient(s) were reduced
940 rows, 1857 columns, 6501 non-zeros
927 integer variables, all of which are binary
Scaling...
 A: min|aij| =  4.189e-05  max|aij| =  4.000e+00  ratio =  9.548e+04
GM: min|aij| =  5.689e-02  max|aij| =  1.758e+01  ratio =  3.090e+02
EQ: min|aij| =  3.236e-03  max|aij| =  1.000e+00  ratio =  3.090e+02
2N: min|aij| =  2.681e-03  max|aij| =  1.759e+00  ratio =  6.560e+02
Constructing initial basis...
Size of triangular part is 940
Solving LP relaxation...
GLPK Simplex Optimizer 5.0
940 rows, 1857 columns, 6501 non-zeros
      0: obj =   6.000000000e+00 inf =   1.450e+01 (7)
     56: obj =   4.999423963e-01 inf =   0.000e+00 (0)
*   208: obj =  -1.732011866e+00 inf =   5.903e-16 (0)
OPTIMAL LP SOLUTION FOUND
Integer optimization begins...
Long-step dual simplex will be used
+   208: mip =     not found yet >=              -inf        (1; 0)
+   313: >>>>>  -1.732011866e+00 >=  -1.732011866e+00 < 0.1% (106; 0)
+   313: mip =  -1.732011866e+00 >=     tree is empty   0.0% (0; 211)
INTEGER OPTIMAL SOLUTION FOUND
Time used:   0.1 secs
Memory used: 2.7 Mb (2879425 bytes)
